c Random generated cnf formula, satisfiable: false
p cnf 10 50
4 -10 9 0
-5 4 -3 0
1 -5 -4 0
6 4 5 0
6 -8 -9 0
-2 -6 10 0
8 9 10 0
5 7 -2 0
-5 -9 6 0
2 -1 -6 0
-2 -3 -10 0
-2 10 -9 0
-9 5 3 0
4 -9 7 0
10 3 -7 0
7 -2 9 0
-1 6 2 0
-5 -7 -10 0
-4 -2 -9 0
-3 -1 6 0
-9 -10 4 0
9 8 7 0
-2 -6 -7 0
-5 6 -8 0
5 1 3 0
-7 3 -10 0
-4 9 3 0
4 -2 -3 0
1 10 2 0
-5 -2 9 0
-5 -1 -7 0
2 -6 -5 0
1 -2 -8 0
-9 2 10 0
-2 -10 -5 0
8 2 4 0
5 10 9 0
-3 2 -10 0
-8 2 9 0
-1 7 -9 0
9 -7 2 0
6 -9 -7 0
2 -4 9 0
4 9 6 0
8 -9 -6 0
-2 7 -10 0
9 -10 7 0
1 -6 -2 0
-7 -4 10 0
-2 10 5 0
